# Objective value = -1304
x_1_2 1
x_1_3 0
x_1_4 0
x_1_5 0
x_1_6 0
x_1_7 0
x_1_8 0
x_1_9 0
x_1_10 0
x_1_11 0
x_1_12 0
x_1_13 0
x_1_14 0
x_1_15 0
x_1_16 0
x_1_17 0
x_1_18 0
x_1_19 0
x_1_20 0
x_1_21 0
x_1_22 0
x_1_23 0
x_1_24 0
x_1_25 0
x_1_26 0
x_1_27 0
x_1_28 0
x_1_29 0
x_1_30 0
x_2_3 0
x_2_4 0
x_2_5 0
x_2_6 0
x_2_7 0
x_2_8 0
x_2_9 0
x_2_10 0
x_2_11 0
x_2_12 0
x_2_13 0
x_2_14 0
x_2_15 0
x_2_16 0
x_2_17 0
x_2_18 0
x_2_19 0
x_2_20 0
x_2_21 0
x_2_22 0
x_2_23 0
x_2_24 0
x_2_25 0
x_2_26 0
x_2_27 0
x_2_28 0
x_2_29 0
x_2_30 0
x_3_4 1
x_3_5 1
x_3_6 0
x_3_7 1
x_3_8 1
x_3_9 0
x_3_10 0
x_3_11 1
x_3_12 0
x_3_13 0
x_3_14 0
x_3_15 0
x_3_16 0
x_3_17 0
x_3_18 0
x_3_19 0
x_3_20 0
x_3_21 0
x_3_22 0
x_3_23 0
x_3_24 0
x_3_25 0
x_3_26 0
x_3_27 0
x_3_28 0
x_3_29 0
x_3_30 0
x_4_5 1
x_4_6 0
x_4_7 1
x_4_8 1
x_4_9 0
x_4_10 0
x_4_11 1
x_4_12 0
x_4_13 0
x_4_14 0
x_4_15 0
x_4_16 0
x_4_17 0
x_4_18 0
x_4_19 0
x_4_20 0
x_4_21 0
x_4_22 0
x_4_23 0
x_4_24 0
x_4_25 0
x_4_26 0
x_4_27 0
x_4_28 0
x_4_29 0
x_4_30 0
x_5_6 0
x_5_7 1
x_5_8 1
x_5_9 0
x_5_10 0
x_5_11 1
x_5_12 0
x_5_13 0
x_5_14 0
x_5_15 0
x_5_16 0
x_5_17 0
x_5_18 0
x_5_19 0
x_5_20 0
x_5_21 0
x_5_22 0
x_5_23 0
x_5_24 0
x_5_25 0
x_5_26 0
x_5_27 0
x_5_28 0
x_5_29 0
x_5_30 0
x_6_7 0
x_6_8 0
x_6_9 0
x_6_10 0
x_6_11 0
x_6_12 0
x_6_13 0
x_6_14 0
x_6_15 0
x_6_16 0
x_6_17 0
x_6_18 0
x_6_19 0
x_6_20 0
x_6_21 0
x_6_22 0
x_6_23 0
x_6_24 0
x_6_25 0
x_6_26 0
x_6_27 0
x_6_28 0
x_6_29 0
x_6_30 0
x_7_8 1
x_7_9 0
x_7_10 0
x_7_11 1
x_7_12 0
x_7_13 0
x_7_14 0
x_7_15 0
x_7_16 0
x_7_17 0
x_7_18 0
x_7_19 0
x_7_20 0
x_7_21 0
x_7_22 0
x_7_23 0
x_7_24 0
x_7_25 0
x_7_26 0
x_7_27 0
x_7_28 0
x_7_29 0
x_7_30 0
x_8_9 0
x_8_10 0
x_8_11 1
x_8_12 0
x_8_13 0
x_8_14 0
x_8_15 0
x_8_16 0
x_8_17 0
x_8_18 0
x_8_19 0
x_8_20 0
x_8_21 0
x_8_22 0
x_8_23 0
x_8_24 0
x_8_25 0
x_8_26 0
x_8_27 0
x_8_28 0
x_8_29 0
x_8_30 0
x_9_10 1
x_9_11 0
x_9_12 1
x_9_13 1
x_9_14 1
x_9_15 1
x_9_16 1
x_9_17 1
x_9_18 1
x_9_19 1
x_9_20 1
x_9_21 1
x_9_22 1
x_9_23 1
x_9_24 1
x_9_25 1
x_9_26 1
x_9_27 1
x_9_28 1
x_9_29 1
x_9_30 1
x_10_11 0
x_10_12 1
x_10_13 1
x_10_14 1
x_10_15 1
x_10_16 1
x_10_17 1
x_10_18 1
x_10_19 1
x_10_20 1
x_10_21 1
x_10_22 1
x_10_23 1
x_10_24 1
x_10_25 1
x_10_26 1
x_10_27 1
x_10_28 1
x_10_29 1
x_10_30 1
x_11_12 0
x_11_13 0
x_11_14 0
x_11_15 0
x_11_16 0
x_11_17 0
x_11_18 0
x_11_19 0
x_11_20 0
x_11_21 0
x_11_22 0
x_11_23 0
x_11_24 0
x_11_25 0
x_11_26 0
x_11_27 0
x_11_28 0
x_11_29 0
x_11_30 0
x_12_13 1
x_12_14 1
x_12_15 1
x_12_16 1
x_12_17 1
x_12_18 1
x_12_19 1
x_12_20 1
x_12_21 1
x_12_22 1
x_12_23 1
x_12_24 1
x_12_25 1
x_12_26 1
x_12_27 1
x_12_28 1
x_12_29 1
x_12_30 1
x_13_14 1
x_13_15 1
x_13_16 1
x_13_17 1
x_13_18 1
x_13_19 1
x_13_20 1
x_13_21 1
x_13_22 1
x_13_23 1
x_13_24 1
x_13_25 1
x_13_26 1
x_13_27 1
x_13_28 1
x_13_29 1
x_13_30 1
x_14_15 1
x_14_16 1
x_14_17 1
x_14_18 1
x_14_19 1
x_14_20 1
x_14_21 1
x_14_22 1
x_14_23 1
x_14_24 1
x_14_25 1
x_14_26 1
x_14_27 1
x_14_28 1
x_14_29 1
x_14_30 1
x_15_16 1
x_15_17 1
x_15_18 1
x_15_19 1
x_15_20 1
x_15_21 1
x_15_22 1
x_15_23 1
x_15_24 1
x_15_25 1
x_15_26 1
x_15_27 1
x_15_28 1
x_15_29 1
x_15_30 1
x_16_17 1
x_16_18 1
x_16_19 1
x_16_20 1
x_16_21 1
x_16_22 1
x_16_23 1
x_16_24 1
x_16_25 1
x_16_26 1
x_16_27 1
x_16_28 1
x_16_29 1
x_16_30 1
x_17_18 1
x_17_19 1
x_17_20 1
x_17_21 1
x_17_22 1
x_17_23 1
x_17_24 1
x_17_25 1
x_17_26 1
x_17_27 1
x_17_28 1
x_17_29 1
x_17_30 1
x_18_19 1
x_18_20 1
x_18_21 1
x_18_22 1
x_18_23 1
x_18_24 1
x_18_25 1
x_18_26 1
x_18_27 1
x_18_28 1
x_18_29 1
x_18_30 1
x_19_20 1
x_19_21 1
x_19_22 1
x_19_23 1
x_19_24 1
x_19_25 1
x_19_26 1
x_19_27 1
x_19_28 1
x_19_29 1
x_19_30 1
x_20_21 1
x_20_22 1
x_20_23 1
x_20_24 1
x_20_25 1
x_20_26 1
x_20_27 1
x_20_28 1
x_20_29 1
x_20_30 1
x_21_22 1
x_21_23 1
x_21_24 1
x_21_25 1
x_21_26 1
x_21_27 1
x_21_28 1
x_21_29 1
x_21_30 1
x_22_23 1
x_22_24 1
x_22_25 1
x_22_26 1
x_22_27 1
x_22_28 1
x_22_29 1
x_22_30 1
x_23_24 1
x_23_25 1
x_23_26 1
x_23_27 1
x_23_28 1
x_23_29 1
x_23_30 1
x_24_25 1
x_24_26 1
x_24_27 1
x_24_28 1
x_24_29 1
x_24_30 1
x_25_26 1
x_25_27 1
x_25_28 1
x_25_29 1
x_25_30 1
x_26_27 1
x_26_28 1
x_26_29 1
x_26_30 1
x_27_28 1
x_27_29 1
x_27_30 1
x_28_29 1
x_28_30 1
x_29_30 1
